11
3  68  85  74  61  96  3  98  27  41  79  
28  18  75  32  90  26  84  97  40  90  55  
73  79  54  52  46  85  4  64  12  7  32  
97  81  93  93  85  91  20  27  71  49  45  
46  81  36  73  66  33  14  57  89  87  37  
44  40  83  29  44  47  42  52  79  39  34  
73  33  20  65  54  47  36  3  92  82  85  
29  56  52  63  70  9  52  58  46  97  99  
30  27  43  78  69  96  58  9  30  31  42  
50  96  97  97  32  0  90  15  86  19  71  
38  83  42  48  35  1  94  33  0  25  60  
